NAME : cgl_45.8154.tour
COMMENT : Length = 8154
COMMENT : Found by LKH-3 [Keld Helsgaun] Fri Nov  8 17:38:18 2024
TYPE : TOUR
DIMENSION : 46
TOUR_SECTION
46
16
17
18
22
27
21
26
25
19
24
28
23
20
29
30
31
32
33
35
34
36
37
38
39
43
41
42
40
44
45
15
14
13
1
2
3
4
5
6
7
8
9
12
11
10
-1
EOF
